7117
61,11,148,130,17,66,60,140,117,57,39,41,101,116,43,67,38,23,32,131,77,133,16,15,78,59,79,121,94,88,21,80,14,122,72,145,147,49,144,129,27,31,123,74,13,136,112,64,44,115,45,71,106,91,119,68,128,4,104,150,125,22,149,62,3,113,10,63,48,73,76,87,1,98,103,34,84,30,96,35,93,126,52,111,105,33,92,54,90,46,138,134,109,51,20,25,47,110,81,29,86,108,70,135,50,55,58,141,83,65,75,26,56,146,97,124,89,8,7,82,95,107,5,100,143,18,142,85,132,137,102,114,99,19,2,37,6,28,9,42,120,139,40,53,12,24,118,127,69,36,61
